(set-logic QF_S)
(declare-fun x () String)
(declare-fun y () String)
(declare-fun z () Int)
(assert (not (= (str.replace "B" (str.replace "A" x y) "A") (str.replace "B" (str.replace "A" x y) x))))
(check-sat)
